NAME : mtspf.pid8757.gtsp.134217865.tour
COMMENT : Length = 134217865
COMMENT : Found by LKH [Keld Helsgaun] Wed Jan 15 11:19:33 2025
TYPE : TOUR
DIMENSION : 85
TOUR_SECTION
1
57
54
55
56
60
61
58
59
17
14
15
16
85
82
83
84
3
34
35
36
37
80
81
78
79
5
26
27
28
29
23
24
25
22
4
11
12
13
10
70
71
72
73
43
44
45
42
48
49
46
47
2
65
62
63
64
77
74
75
76
38
39
40
41
18
19
20
21
66
67
68
69
33
30
31
32
9
6
7
8
50
51
52
53
-1
EOF
